certificates/rado_a13_c176_N49.cnf
c Rad2 upper bound instance: x1 + 13*x2 - x3 = 176, interval [1,49]
p cnf 49 366
1 7 14 0
-1 -7 -14 0
1 15 20 0
-1 -15 -20 0
1 16 33 0
-1 -16 -33 0
1 17 46 0
-1 -17 -46 0
2 8 14 0
-2 -8 -14 0
2 15 21 0
-2 -15 -21 0
2 16 34 0
-2 -16 -34 0
2 17 47 0
-2 -17 -47 0
3 9 14 0
-3 -9 -14 0
3 15 22 0
-3 -15 -22 0
3 16 35 0
-3 -16 -35 0
3 17 48 0
-3 -17 -48 0
4 10 14 0
-4 -10 -14 0
4 15 23 0
-4 -15 -23 0
4 16 36 0
-4 -16 -36 0
4 17 49 0
-4 -17 -49 0
5 11 14 0
-5 -11 -14 0
5 15 24 0
-5 -15 -24 0
5 16 37 0
-5 -16 -37 0
6 12 14 0
-6 -12 -14 0
6 15 25 0
-6 -15 -25 0
6 16 38 0
-6 -16 -38 0
7 13 14 0
-7 -13 -14 0
7 15 26 0
-7 -15 -26 0
7 16 39 0
-7 -16 -39 0
1 8 13 0
-1 -8 -13 0
8 14 0
-8 -14 0
8 15 27 0
-8 -15 -27 0
8 16 40 0
-8 -16 -40 0
2 9 13 0
-2 -9 -13 0
9 14 15 0
-9 -14 -15 0
9 15 28 0
-9 -15 -28 0
9 16 41 0
-9 -16 -41 0
3 10 13 0
-3 -10 -13 0
10 14 16 0
-10 -14 -16 0
10 15 29 0
-10 -15 -29 0
10 16 42 0
-10 -16 -42 0
4 11 13 0
-4 -11 -13 0
11 14 17 0
-11 -14 -17 0
11 15 30 0
-11 -15 -30 0
11 16 43 0
-11 -16 -43 0
5 12 13 0
-5 -12 -13 0
12 14 18 0
-12 -14 -18 0
12 15 31 0
-12 -15 -31 0
12 16 44 0
-12 -16 -44 0
6 13 0
-6 -13 0
13 14 19 0
-13 -14 -19 0
13 15 32 0
-13 -15 -32 0
13 16 45 0
-13 -16 -45 0
14 20 0
-14 -20 0
14 15 33 0
-14 -15 -33 0
14 16 46 0
-14 -16 -46 0
8 13 15 0
-8 -13 -15 0
14 15 21 0
-14 -15 -21 0
15 34 0
-15 -34 0
15 16 47 0
-15 -16 -47 0
9 13 16 0
-9 -13 -16 0
14 16 22 0
-14 -16 -22 0
15 16 35 0
-15 -16 -35 0
16 48 0
-16 -48 0
10 13 17 0
-10 -13 -17 0
14 17 23 0
-14 -17 -23 0
15 17 36 0
-15 -17 -36 0
16 17 49 0
-16 -17 -49 0
11 13 18 0
-11 -13 -18 0
14 18 24 0
-14 -18 -24 0
15 18 37 0
-15 -18 -37 0
12 13 19 0
-12 -13 -19 0
14 19 25 0
-14 -19 -25 0
15 19 38 0
-15 -19 -38 0
13 20 0
-13 -20 0
14 20 26 0
-14 -20 -26 0
15 20 39 0
-15 -20 -39 0
1 12 21 0
-1 -12 -21 0
13 14 21 0
-13 -14 -21 0
14 21 27 0
-14 -21 -27 0
15 21 40 0
-15 -21 -40 0
2 12 22 0
-2 -12 -22 0
13 15 22 0
-13 -15 -22 0
14 22 28 0
-14 -22 -28 0
15 22 41 0
-15 -22 -41 0
3 12 23 0
-3 -12 -23 0
13 16 23 0
-13 -16 -23 0
14 23 29 0
-14 -23 -29 0
15 23 42 0
-15 -23 -42 0
4 12 24 0
-4 -12 -24 0
13 17 24 0
-13 -17 -24 0
14 24 30 0
-14 -24 -30 0
15 24 43 0
-15 -24 -43 0
5 12 25 0
-5 -12 -25 0
13 18 25 0
-13 -18 -25 0
14 25 31 0
-14 -25 -31 0
15 25 44 0
-15 -25 -44 0
6 12 26 0
-6 -12 -26 0
13 19 26 0
-13 -19 -26 0
14 26 32 0
-14 -26 -32 0
15 26 45 0
-15 -26 -45 0
7 12 27 0
-7 -12 -27 0
13 20 27 0
-13 -20 -27 0
14 27 33 0
-14 -27 -33 0
15 27 46 0
-15 -27 -46 0
8 12 28 0
-8 -12 -28 0
13 21 28 0
-13 -21 -28 0
14 28 34 0
-14 -28 -34 0
15 28 47 0
-15 -28 -47 0
9 12 29 0
-9 -12 -29 0
13 22 29 0
-13 -22 -29 0
14 29 35 0
-14 -29 -35 0
15 29 48 0
-15 -29 -48 0
10 12 30 0
-10 -12 -30 0
13 23 30 0
-13 -23 -30 0
14 30 36 0
-14 -30 -36 0
15 30 49 0
-15 -30 -49 0
11 12 31 0
-11 -12 -31 0
13 24 31 0
-13 -24 -31 0
14 31 37 0
-14 -31 -37 0
12 32 0
-12 -32 0
13 25 32 0
-13 -25 -32 0
14 32 38 0
-14 -32 -38 0
12 13 33 0
-12 -13 -33 0
13 26 33 0
-13 -26 -33 0
14 33 39 0
-14 -33 -39 0
1 11 34 0
-1 -11 -34 0
12 14 34 0
-12 -14 -34 0
13 27 34 0
-13 -27 -34 0
14 34 40 0
-14 -34 -40 0
2 11 35 0
-2 -11 -35 0
12 15 35 0
-12 -15 -35 0
13 28 35 0
-13 -28 -35 0
14 35 41 0
-14 -35 -41 0
3 11 36 0
-3 -11 -36 0
12 16 36 0
-12 -16 -36 0
13 29 36 0
-13 -29 -36 0
14 36 42 0
-14 -36 -42 0
4 11 37 0
-4 -11 -37 0
12 17 37 0
-12 -17 -37 0
13 30 37 0
-13 -30 -37 0
14 37 43 0
-14 -37 -43 0
5 11 38 0
-5 -11 -38 0
12 18 38 0
-12 -18 -38 0
13 31 38 0
-13 -31 -38 0
14 38 44 0
-14 -38 -44 0
6 11 39 0
-6 -11 -39 0
12 19 39 0
-12 -19 -39 0
13 32 39 0
-13 -32 -39 0
14 39 45 0
-14 -39 -45 0
7 11 40 0
-7 -11 -40 0
12 20 40 0
-12 -20 -40 0
13 33 40 0
-13 -33 -40 0
14 40 46 0
-14 -40 -46 0
8 11 41 0
-8 -11 -41 0
12 21 41 0
-12 -21 -41 0
13 34 41 0
-13 -34 -41 0
14 41 47 0
-14 -41 -47 0
9 11 42 0
-9 -11 -42 0
12 22 42 0
-12 -22 -42 0
13 35 42 0
-13 -35 -42 0
14 42 48 0
-14 -42 -48 0
10 11 43 0
-10 -11 -43 0
12 23 43 0
-12 -23 -43 0
13 36 43 0
-13 -36 -43 0
14 43 49 0
-14 -43 -49 0
11 44 0
-11 -44 0
12 24 44 0
-12 -24 -44 0
13 37 44 0
-13 -37 -44 0
11 12 45 0
-11 -12 -45 0
12 25 45 0
-12 -25 -45 0
13 38 45 0
-13 -38 -45 0
11 13 46 0
-11 -13 -46 0
12 26 46 0
-12 -26 -46 0
13 39 46 0
-13 -39 -46 0
1 10 47 0
-1 -10 -47 0
11 14 47 0
-11 -14 -47 0
12 27 47 0
-12 -27 -47 0
13 40 47 0
-13 -40 -47 0
2 10 48 0
-2 -10 -48 0
11 15 48 0
-11 -15 -48 0
12 28 48 0
-12 -28 -48 0
13 41 48 0
-13 -41 -48 0
3 10 49 0
-3 -10 -49 0
11 16 49 0
-11 -16 -49 0
12 29 49 0
-12 -29 -49 0
13 42 49 0
-13 -42 -49 0
