certificates/rado_a13_c176_N49.drat
11 16 -49 0
-48 -49 0
-49 0
-44 48 0
-11 -16 0
d -11 -43 -16 0
48 0
-16 0
17 0
11 0
-3 0
-14 0
-44 0
-15 0
10 0
35 0
8 0
20 0
43 0
38 0
46 0
22 0
33 0
21 0
9 0
12 0
34 0
30 0
25 0
47 0
0
